p cnf 21 42
c weights 1.0 1.0 0.2 0.8 1.0 1.0 0.3 1.0 0.7 1.0 0.0 1.0 1.0 1.0 1.0 1.0 0.2 0.8 1.0 1.0 0.3 1.0 0.7 1.0 0.0 1.0 1.0 1.0 1.0 1.0 0.2 0.8 1.0 1.0 0.3 1.0 0.7 1.0 0.0 1.0 1.0 1.0

c---------- stress(a)
1 -2 0
-1 2 0

c---------- aux1 | stress(a)
4 -3 -1 0
-4 3 0
-4 1 0

c---------- -aux1 | stress(a)
5 3 -1 0
-5 -3 0
-5 1 0

c---------- aux1 | -stress(a)
6 -3 1 0
-6 3 0
-6 -1 0

c---------- -aux1 | -stress(a)
7 3 1 0
-7 -3 0
-7 -1 0

c---------- stress(b)
8 -9 0
-8 9 0

c---------- aux2 | stress(b)
11 -10 -8 0
-11 10 0
-11 8 0

c---------- -aux2 | stress(b)
12 10 -8 0
-12 -10 0
-12 8 0

c---------- aux2 | -stress(b)
13 -10 8 0
-13 10 0
-13 -8 0

c---------- -aux2 | -stress(b)
14 10 8 0
-14 -10 0
-14 -8 0

c---------- stress(c)
15 -16 0
-15 16 0

c---------- aux3 | stress(c)
18 -17 -15 0
-18 17 0
-18 15 0

c---------- -aux3 | stress(c)
19 17 -15 0
-19 -17 0
-19 15 0

c---------- aux3 | -stress(c)
20 -17 15 0
-20 17 0
-20 -15 0

c---------- -aux3 | -stress(c)
21 17 15 0
-21 -17 0
-21 -15 0

17 0